NAME: rue_15_4
TYPE: TSP
DIMENSION: 15
EDGE_WEIGHT_TYPE: EUC_2D
NODE_COORD_SECTION
1 71 92
2 92 74
3 8 97
4 38 50
5 57 54
6 51 74
7 66 9
8 13 53
9 72 31
10 20 80
11 32 15
12 75 93
13 56 59
14 84 75
15 60 23
